c (x1 ∨ x6 ∨ x12 ∨ -x21 ∨ x32) ∧ (x3 ∨ x5 ∨ -x11 ∨ x24 ∨ x35) ∧ (-x3 ∨ x31 ∨ x40 ∨ x9 ∨ x27) ∧ (x4 ∨ x8 ∨ x10 ∨ x29 ∨ x40) ∧ (x4 ∨ x7 ∨ x11 ∨ x25 ∨ -x36) ∧ (x8 ∨ x14 ∨ x18 ∨ x21 ∨ x38) ∧ (x12 ∨ x15 ∨ -x20 ∨ x30 ∨ x35) ∧ (x19 ∨ x21 ∨ -x32 ∨ x33 ∨ x39) ∧ (x2 ∨ x37 ∨ x19 ∨ -x23) ∧ (-x5 ∨ x14 ∨ x23 ∨ x30) ∧ (-x5 ∨ x8 ∨ x18 ∨ x23) ∧ (x33 ∨ x22 ∨ x4 ∨ x38) ∧ (x2 ∨ x20 ∨ x39) ∧ (x3 ∨ x15 ∨ -x30) ∧ (x6 ∨ -x17 ∨ x30) ∧ (x8 ∨ x29 ∨ -x21) ∧ (-x16 ∨ x1 ∨ x29) ∧ (x20 ∨ x10 ∨ -x5) ∧ (x21 ∨ x28 ∨ x30) ∧ (-x13 ∨ x25) ∧ -x2 ∧ x3 ∧ -x7 ∧ -x10 ∧ -x11 ∧ x14 ∧ -x15 ∧ -x22 ∧ x26 ∧ -x27 ∧ x34 ∧ x36 ∧ x37 ∧ -x40
p cnf 40 34
1 6 12 -21 32 0
3 5 -11 24 35 0
-3 31 40 9 27 0
4 8 10 29 40 0
4 7 11 25 -36 0
8 14 18 21 38 0
12 15 -20 30 35 0
19 21 -32 33 39 0
2 37 19 -23 0
-5 14 23 30 0
-5 8 18 23 0
33 22 4 38 0
2 20 39 0
3 15 -30 0
6 -17 30 0
8 29 -21 0
-16 1 29 0
20 10 -5 0
21 28 30 0
-13 25 0
-2 0
3 0
-7 0
-10 0
-11 0
14 0
-15 0
-22 0
26 0
-27 0
34 0
36 0
37 0
-40 0
